80 14065492
63 32 40 59 56 21 8 74 23 78 53 77 66 72 22 46 47 80 54 25 38 1 26 17 15 27 18 34 31 33 3 55 76 75 79 41 39 71 2 70 9 28 11 6 69 13 29 48 45 30 20 62 57 7 44 16 64 10 68 51 73 43 12 36 19 50 67 14 60 5 4 61 42 58 65 24 49 52 35 37 
